NAME: tsp15_25
COMMENT: 15-tsp problem (Padberg/Rinaldi)
TYPE: TSP
DIMENSION: 15
EDGE_WEIGHT_TYPE : EUC_2D
NODE_COORD_SECTION
1 6 11
2 38 21
3 12 30
4 21 8
5 32 4
6 23 30
7 19 36
8 21 34
9 20 24
10 38 14
11 11 3
12 36 36
13 28 4
14 8 20
15 18 6
